
******************************************************************************
This program contains Ipopt, a library for large-scale nonlinear optimization.
 Ipopt is released as open source code under the Eclipse Public License (EPL).
         For more information visit http://projects.coin-or.org/Ipopt
******************************************************************************

This is Ipopt version 3.12.6, running with linear solver ma57.

Number of nonzeros in equality constraint Jacobian...:        0
Number of nonzeros in inequality constraint Jacobian.:        0
Number of nonzeros in Lagrangian Hessian.............:   524800

Total number of variables............................:     1024
                     variables with only lower bounds:        0
                variables with lower and upper bounds:        0
                     variables with only upper bounds:        0
Total number of equality constraints.................:        0
Total number of inequality constraints...............:        0
        inequality constraints with only lower bounds:        0
   inequality constraints with lower and upper bounds:        0
        inequality constraints with only upper bounds:        0

iter    objective    inf_pr   inf_du lg(mu)  ||d||  lg(rg) alpha_du alpha_pr  ls
   0  7.9382130e+03 0.00e+00 2.61e+01  -1.0 0.00e+00    -  0.00e+00 0.00e+00   0
   1  6.6646851e+03 0.00e+00 4.80e+01  -1.0 2.21e+01   2.0 1.00e+00 6.25e-02f  5
   2  5.7551979e+03 0.00e+00 4.58e+01  -1.0 1.79e-01   2.4 1.00e+00 1.00e+00f  1
   3  1.6590308e+03 0.00e+00 6.59e+01  -1.0 9.35e-01   1.9 1.00e+00 1.00e+00f  1
   4  9.7566545e+02 0.00e+00 3.51e+01  -1.0 1.48e-01   2.4 1.00e+00 1.00e+00f  1
   5  3.5062309e+02 0.00e+00 1.58e+01  -1.0 2.32e-01   1.9 1.00e+00 1.00e+00f  1
   6  4.8680567e+01 0.00e+00 4.69e+00  -1.0 2.97e-01   1.4 1.00e+00 1.00e+00f  1
   7  1.4335612e+01 0.00e+00 1.41e+00  -1.0 1.81e-01   0.9 1.00e+00 1.00e+00f  1
   8  5.0654843e+00 0.00e+00 1.14e+00  -1.0 1.37e-01   0.5 1.00e+00 1.00e+00f  1
   9  1.5559053e+00 0.00e+00 9.33e-01  -1.0 1.41e-01  -0.0 1.00e+00 1.00e+00f  1
iter    objective    inf_pr   inf_du lg(mu)  ||d||  lg(rg) alpha_du alpha_pr  ls
  10  3.9894667e-01 0.00e+00 4.07e-01  -1.7 1.28e-01  -0.5 1.00e+00 1.00e+00f  1
  11  1.0895089e-01 0.00e+00 4.37e-01  -1.7 9.48e-02  -1.0 1.00e+00 1.00e+00f  1
  12  5.2701311e-02 0.00e+00 3.83e-02  -1.7 2.68e-02  -0.5 1.00e+00 1.00e+00f  1
  13  2.6697508e-02 0.00e+00 8.15e-02  -2.5 4.41e-02  -1.0 1.00e+00 1.00e+00f  1
  14  1.2439994e-02 0.00e+00 3.99e-02  -2.5 6.97e-02  -1.5 1.00e+00 1.00e+00f  1
  15  6.2749844e-03 0.00e+00 1.14e-01  -2.5 9.76e-02  -2.0 1.00e+00 1.00e+00f  1
  16  4.3652868e-03 0.00e+00 1.25e-03  -2.5 5.34e-03  -0.6 1.00e+00 1.00e+00f  1
  17  3.5215276e-03 0.00e+00 8.11e-02  -5.7 2.15e-01    -  1.00e+00 5.00e-01f  2
  18  9.3650673e-04 0.00e+00 6.32e-04  -5.7 5.49e-03  -1.1 1.00e+00 1.00e+00f  1
  19  4.0090028e-04 0.00e+00 1.93e-02  -5.7 8.83e-02    -  1.00e+00 5.00e-01f  2
iter    objective    inf_pr   inf_du lg(mu)  ||d||  lg(rg) alpha_du alpha_pr  ls
  20  1.5831093e-04 0.00e+00 7.41e-04  -5.7 6.42e-03  -1.6 1.00e+00 1.00e+00f  1
  21  1.4762144e-04 0.00e+00 1.98e-02  -5.7 4.57e-02    -  1.00e+00 1.00e+00f  1
  22  1.3061210e-07 0.00e+00 7.72e-06  -5.7 4.58e-04  -2.1 1.00e+00 1.00e+00f  1
  23  3.7914510e-09 0.00e+00 1.25e-04  -8.6 2.37e-03    -  1.00e+00 1.00e+00f  1
  24  4.2237194e-16 0.00e+00 4.66e-10  -8.6 3.48e-06    -  1.00e+00 1.00e+00f  1

Number of Iterations....: 24

                                   (scaled)                 (unscaled)
Objective...............:   4.2237194086567248e-16    4.2237194086567248e-16
Dual infeasibility......:   4.6618516051353830e-10    4.6618516051353830e-10
Constraint violation....:   0.0000000000000000e+00    0.0000000000000000e+00
Complementarity.........:   0.0000000000000000e+00    0.0000000000000000e+00
Overall NLP error.......:   4.6618516051353830e-10    4.6618516051353830e-10


Number of objective function evaluations             = 43
Number of objective gradient evaluations             = 25
Number of equality constraint evaluations            = 0
Number of inequality constraint evaluations          = 0
Number of equality constraint Jacobian evaluations   = 0
Number of inequality constraint Jacobian evaluations = 0
Number of Lagrangian Hessian evaluations             = 24
Total CPU secs in IPOPT (w/o function evaluations)   =      2.670
Total CPU secs in NLP function evaluations           =      1.277

EXIT: Optimal Solution Found.

 ** SUBROUTINE CUTEST_csetup: Warning. The problem has no general constraints. 
 ** Other tools may be preferable ** 

************************ CUTEst statistics ************************


 Package used            :  IPOPT
 Problem                 :  MSQRTALS  
 # variables             =            1024
 # constraints           =               0
 # objective functions   =        0.6900000E+02
 # objective gradients   =        0.2600000E+02
 # objective Hessians    =        0.2500000E+02
 # Hessian-vector prdct  =        0.0000000E+00
 # constraints functions =        0.0000000E+00
 # constraints gradients =        0.0000000E+00
 # constraints Hessians  =        0.0000000E+00
 Exit code               =               0
 Final f                 =   0.4223719E-15
 Set up time             =            0.21 seconds
 Solve time              =            4.06 seconds


******************************************************************

System Time =       3.9660000801 s.
